
Gurobi 11.0.3 (linux64) logging started Mon Aug 25 15:09:54 2025

Set parameter LogFile to value "/home/yihong/Coding/OR_SUC/SUC_epstheta_results_bigM100000_thread4/case24_ieee_rts_theta0.1_epsilon0.1_gurobi_seed100000_num_gen100_N_WDR50_load_scaling_factor1_proposed_eps_T14quadra_cost_bc1.05.txt"
Set parameter TimeLimit to value 3600
Gurobi Optimizer version 11.0.3 build v11.0.3rc0 (linux64 - "Ubuntu 20.04.6 LTS")

CPU model: AMD EPYC 7532 32-Core Processor, instruction set [SSE2|AVX|AVX2]
Thread count: 64 physical cores, 128 logical processors, using up to 4 threads

Academic license 2399124 - for non-commercial use only - registered to yi___@ed.ac.uk
Optimize a model with 33318 rows, 17411 columns and 766758 nonzeros
Model fingerprint: 0x2386f862
Model has 1400 quadratic constraints
Variable types: 16011 continuous, 1400 integer (1400 binary)
Coefficient statistics:
  Matrix range     [3e-04, 3e+03]
  QMatrix range    [2e-03, 8e-03]
  QLMatrix range   [6e-01, 6e+01]
  Objective range  [1e+00, 1e+00]
  Bounds range     [1e+00, 1e+00]
  RHS range        [1e+00, 9e+03]
Presolve removed 27289 rows and 7458 columns
Presolve time: 0.33s
Presolved: 6029 rows, 9953 columns, 34945 nonzeros
Presolved model has 1400 quadratic constraint(s)
Variable types: 8553 continuous, 1400 integer (1400 binary)

Root relaxation: objective 1.471048e+04, 4390 iterations, 0.13 seconds (0.13 work units)

    Nodes    |    Current Node    |     Objective Bounds      |     Work
 Expl Unexpl |  Obj  Depth IntInf | Incumbent    BestBd   Gap | It/Node Time

     0     0 14710.4847    0    -          - 14710.4847      -     -    0s
     0     0 214212.318    0  420          - 214212.318      -     -    0s
     0     0 392180.276    0  405          - 392180.276      -     -    1s
     0     0 392196.615    0  214          - 392196.615      -     -    1s
     0     0 392285.667    0  159          - 392285.667      -     -    1s
     0     0 392289.872    0  159          - 392289.872      -     -    1s
     0     0 392289.872    0  159          - 392289.872      -     -    1s
     0     0 392289.872    0  159          - 392289.872      -     -    1s
     0     2 392289.872    0  159          - 392289.872      -     -    2s
   270   436 392572.812   78   22          - 392289.872      -  20.2    5s
H  286   381                    392573.18720 392289.872  0.07%  19.1    5s
*  286   381              94    392573.18720 392289.872  0.07%  19.1    5s

Cutting planes:
  Gomory: 122
  Implied bound: 307
  MIR: 83
  Flow cover: 197
  RLT: 144

Explored 441 nodes (18039 simplex iterations) in 5.61 seconds (5.30 work units)
Thread count was 4 (of 128 available processors)

Solution count 2: 392573 392573 

Optimal solution found (tolerance 1.00e-03)
Warning: max constraint violation (1.9422e-07) exceeds tolerance
Best objective 3.925731872059e+05, best bound 3.922928371853e+05, gap 0.0714%

Gurobi 11.0.3 (linux64) logging started Mon Aug 25 15:10:01 2025

Set parameter LogFile to value "/home/yihong/Coding/OR_SUC/SUC_epstheta_results_bigM100000_thread4/case24_ieee_rts_theta0.1_epsilon0.1_gurobi_seed100000_num_gen100_N_WDR50_load_scaling_factor1_proposed_eps_T14quadra_cost_bc1.05.txt"
Set parameter TimeLimit to value 3600
Gurobi Optimizer version 11.0.3 build v11.0.3rc0 (linux64 - "Ubuntu 20.04.6 LTS")

CPU model: AMD EPYC 7532 32-Core Processor, instruction set [SSE2|AVX|AVX2]
Thread count: 64 physical cores, 128 logical processors, using up to 4 threads

Academic license 2399124 - for non-commercial use only - registered to yi___@ed.ac.uk
Optimize a model with 33318 rows, 17412 columns and 771047 nonzeros
Model fingerprint: 0x10727867
Model has 1401 quadratic constraints
Variable types: 16012 continuous, 1400 integer (1400 binary)
Coefficient statistics:
  Matrix range     [3e-04, 3e+03]
  QMatrix range    [2e-03, 5e+01]
  QLMatrix range   [6e-01, 6e+01]
  Objective range  [1e+00, 1e+00]
  Bounds range     [1e-01, 1e+00]
  RHS range        [1e+00, 4e+05]
  QRHS range       [5e+00, 5e+00]
Presolve removed 24622 rows and 6125 columns
Presolve time: 0.30s
Presolved: 10098 rows, 12687 columns, 52038 nonzeros
Presolved model has 1400 quadratic constraint(s)
Presolved model has 1 bilinear constraint(s)

Solving non-convex MIQCP

Variable types: 11283 continuous, 1404 integer (1404 binary)

Root relaxation: objective 1.485490e-03, 13592 iterations, 0.93 seconds (1.25 work units)

    Nodes    |    Current Node    |     Objective Bounds      |     Work
 Expl Unexpl |  Obj  Depth IntInf | Incumbent    BestBd   Gap | It/Node Time

     0     0    0.00149    0   29          -    0.00149      -     -    1s
     0     0    0.00149    0   21          -    0.00149      -     -    2s
     0     0    0.00204    0   13          -    0.00204      -     -    2s
     0     0    0.00204    0   13          -    0.00204      -     -    2s
     0     0    0.00204    0   13          -    0.00204      -     -    2s
     0     0    0.00204    0   13          -    0.00204      -     -    2s
     0     0    0.00256    0   13          -    0.00256      -     -    3s
H    0     0                       0.0157051    0.00256  83.7%     -    3s
     0     2    0.01291    0   13    0.01571    0.01291  17.8%     -    4s
     3     8    0.01291    2   13    0.01571    0.01291  17.8%   168    5s
   314   335    0.01296   79    6    0.01571    0.01291  17.8%  11.6   10s
H  342   302                       0.0135883    0.01291  4.98%  26.6   10s
*  342   302              87       0.0135883    0.01291  4.98%  26.6   10s
H  380   300                       0.0134810    0.01291  4.21%  33.0   11s
*  380   300              93       0.0134810    0.01291  4.21%  33.0   11s
H  580   485                       0.0134810    0.01291  4.21%  38.0   13s
*  580   485              48       0.0134810    0.01291  4.21%  38.0   13s
H  700   489                       0.0134694    0.01292  4.11%  36.6   14s
*  700   489              70       0.0134694    0.01292  4.11%  36.6   14s
H  801   562                       0.0134690    0.01292  4.11%  32.8   14s
*  801   562              80       0.0134690    0.01292  4.11%  32.8   14s
   836   615    0.01343   25    6    0.01347    0.01292  4.11%  31.5   15s
   926   617    0.01334   18   30    0.01347    0.01334  0.99%  30.1   20s
   933   622    0.01334   59   17    0.01347    0.01334  0.98%  29.9   26s
   936   625    0.01334   12   39    0.01347    0.01334  0.98%  46.2   30s
   943   630    0.01335   29   31    0.01347    0.01334  0.98%  45.9   35s
  1194   772    0.01334   57   53    0.01347    0.01334  0.95%  57.0   40s
H 2028   653                       0.0134688    0.01334  0.93%  50.3   44s
  2176   568    0.01343   52   61    0.01347    0.01334  0.93%  47.5   45s
* 3081  1068             397       0.0134684    0.01335  0.88%  35.6   48s
H 3603  1348                       0.0134684    0.01335  0.88%  31.3   49s
  3727  1460    0.01347  131   15    0.01347    0.01335  0.88%  30.8   50s
H 3912   923                       0.0134341    0.01335  0.63%  29.6   50s
* 4950   946             243       0.0134092    0.01335  0.44%  25.7   54s
  5042  1108    0.01336   38   33    0.01341    0.01335  0.43%  25.9   55s
* 5183   806             292       0.0133992    0.01335  0.36%  25.2   55s
* 6141   404             228       0.0133750    0.01336  0.14%  22.4   59s
  6252   311     cutoff  230         0.01338    0.01336  0.14%  22.3   60s
* 7365  1022             211       0.0133750    0.01336  0.12%  19.6   62s
* 8183   672             257       0.0133750    0.01336  0.11%  17.8   63s
* 8559   700             243       0.0133738    0.01336  0.10%  17.0   64s

Cutting planes:
  Gomory: 11
  Lift-and-project: 3
  Implied bound: 38
  MIR: 10
  Flow cover: 7
  Inf proof: 10
  RLT: 23

Explored 8661 nodes (161397 simplex iterations) in 64.99 seconds (68.36 work units)
Thread count was 4 (of 128 available processors)

Solution count 10: 0.0133738 0.013375 0.013375 ... 0.0134688

Optimal solution found (tolerance 1.00e-03)
Best objective 1.337380037475e-02, best bound 1.336043906184e-02, gap 0.0999%
